 80 13 64 77 17 78 82  4 72 93 68 25 67 80 43 93 21 33 14 30
 59 83 85 85 70 35  2 76 46 72 69 46  3 57 71 77 33 49 59 82
 59 70 76 10 65 19 77 86 21 75 96  3 50 57 66 84 98 55 70 32
 31 64 11  9 32 58 98 95 25  4 45 60 87 31  1 96 22 95 73 77
 30 88 14 22 93 48 10  7 14 91  5 43 30 79 39 34 77 81 11 10
 53 19 99 62 88 93 34 72 42 65 39 79  9 26 72 29 36 48 57 95
 93 79 88 77 94 39 74 46 17 30 62 77 43 98 48 14 45 25 98 30
 90 92 35 13 75 55 80 67  3 93 54 67 25 77 38 98 96 20 15 36
 65 97 27 25 61 24 97 61 75 92 73 21 29  3 96 51 26 44 56 31
 64 38 44 46 66 31 48 27 82 51 90 63 85 36 69 67 81 18 81 72